pMedian	pDispersion
15893.0	36.0
24456.0	51.0
20462.0	43.0
18041.0	40.0
22149.0	47.0
10593.0	18.0
10060.0	14.0
9934.0	11.0
10458.0	16.0
10220.0	15.0
22762.0	49.0
21104.0	46.0
15746.0	35.0
15300.0	34.0
15220.0	33.0
10465.0	17.0
19283.0	42.0
17059.0	39.0
22599.0	48.0
21018.0	45.0
16802.0	37.0
12088.0	23.0
11887.0	22.0
16826.0	38.0
9993.0	13.0
13405.0	25.0
11855.0	21.0
20768.0	44.0
14235.0	29.0
18779.0	41.0
14665.0	32.0
23182.0	50.0
14471.0	31.0
12964.0	24.0
13872.0	28.0
13445.0	26.0
13505.0	27.0
